c randN150_K3_R0.2_L30_35.cnf
p cnf 150 30
-80 88 36 0
77 22 149 0
99 54 15 0
-6 101 93 0
96 -103 -43 0
-24 9 -69 0
-87 74 -77 0
148 -44 4 0
128 77 -113 0
-141 -43 134 0
126 -10 23 0
-62 -67 -138 0
96 61 78 0
72 17 99 0
18 -93 5 0
116 84 -56 0
91 -21 77 0
-131 -99 -34 0
-111 -54 -84 0
112 -95 122 0
-53 117 46 0
-146 -91 -66 0
8 -14 29 0
40 99 125 0
113 -142 66 0
-120 91 107 0
-88 1 -44 0
32 84 -49 0
8 145 -58 0
41 67 -73 0
